100
100
3000 3000 3000 3000 3000 3000 3000 3000 3000 3000 3000 3000 3000 3000 3000 3000 3000 3000 3000 3000 3000 3000 3000 3000 3000 3000 3000 3000 3000 3000 3000 3000 3000 3000 3000 3000 3000 3000 3000 3000 3000 3000 3000 3000 3000 3000 3000 3000 3000 3000 3000 3000 3000 3000 3000 3000 3000 3000 3000 3000 3000 3000 3000 3000 3000 3000 3000 3000 3000 3000 3000 3000 3000 3000 3000 3000 3000 3000 3000 3000 3000 3000 3000 3000 3000 3000 3000 3000 3000 3000 3000 3000 3000 3000 3000 3000 3000 3000 3000 3000
0 0 1
0 1 2
0 6 4
0 19 2
0 40 4
0 56 4
0 61 0
0 63 4
0 68 0
0 78 2
1 22 0
1 39 3
1 53 0
1 54 3
1 64 1
1 68 0
1 71 4
1 77 3
1 78 1
1 80 0
2 21 0
2 25 1
2 28 3
2 29 3
2 44 0
2 58 2
2 71 0
2 96 0
2 98 0
2 99 2
3 1 4
3 8 1
3 11 3
3 15 0
3 30 1
3 55 1
3 91 3
3 95 3
3 96 0
3 98 4
4 3 1
4 12 3
4 14 3
4 18 3
4 20 2
4 40 2
4 43 0
4 44 1
4 51 4
4 56 0
5 2 2
5 6 3
5 19 3
5 25 0
5 34 2
5 48 0
5 49 4
5 51 0
5 60 1
5 64 0
6 3 3
6 9 3
6 12 0
6 72 1
6 89 3
6 95 3
6 96 4
6 97 0
6 98 3
6 99 3
7 1 4
7 21 1
7 38 3
7 46 2
7 48 3
7 49 3
7 50 2
7 51 0
7 52 2
7 70 3
8 5 2
8 31 0
8 33 3
8 36 1
8 53 3
8 77 2
8 80 4
8 82 2
8 87 2
8 88 3
9 12 4
9 23 2
9 25 4
9 26 1
9 33 1
9 38 2
9 42 4
9 65 4
9 66 1
9 85 4
10 17 3
10 47 4
10 49 1
10 51 1
10 57 3
10 58 4
10 72 0
10 85 0
10 89 0
10 93 0
11 9 0
11 17 1
11 37 3
11 58 2
11 69 4
11 76 1
11 78 3
11 79 3
11 86 3
11 89 3
12 18 3
12 23 3
12 30 4
12 31 3
12 35 1
12 47 1
12 51 0
12 59 2
12 67 0
12 74 0
13 0 1
13 1 2
13 5 2
13 10 2
13 34 1
13 40 4
13 61 3
13 69 0
13 70 1
13 74 2
14 19 0
14 27 0
14 30 4
14 32 3
14 59 1
14 63 2
14 68 2
14 73 2
14 91 3
14 95 1
15 13 2
15 29 1
15 44 3
15 48 1
15 83 3
15 85 1
15 89 3
15 94 4
15 95 1
15 97 3
16 9 1
16 10 3
16 11 0
16 17 1
16 22 0
16 24 4
16 30 4
16 31 4
16 56 2
16 76 0
17 5 2
17 22 2
17 44 4
17 66 0
17 81 4
17 90 2
17 93 2
17 97 3
17 98 1
17 99 1
18 3 2
18 25 1
18 38 2
18 61 4
18 64 1
18 65 3
18 83 3
18 87 1
18 91 0
18 94 3
19 0 1
19 7 4
19 23 4
19 29 3
19 38 0
19 56 4
19 61 3
19 78 0
19 83 2
19 86 1
20 19 4
20 29 4
20 35 1
20 37 1
20 72 4
20 80 4
20 89 2
20 91 2
20 92 4
20 96 2
21 9 0
21 34 3
21 42 3
21 53 0
21 60 3
21 66 2
21 73 4
21 75 3
21 86 3
21 94 2
22 4 3
22 41 3
22 43 1
22 53 2
22 57 3
22 89 2
22 90 3
22 91 0
22 94 3
22 96 4
23 2 2
23 27 2
23 29 2
23 39 0
23 42 1
23 43 2
23 60 2
23 63 1
23 84 2
23 88 2
24 7 3
24 8 4
24 37 2
24 65 3
24 73 0
24 86 0
24 88 1
24 93 0
24 94 2
24 96 3
25 16 3
25 28 3
25 79 1
25 83 3
25 84 4
25 93 2
25 94 4
25 95 0
25 98 3
25 99 2
26 16 0
26 23 4
26 36 3
26 39 0
26 41 3
26 46 0
26 78 2
26 81 2
26 82 1
26 93 3
27 14 3
27 16 4
27 21 0
27 22 4
27 34 0
27 36 2
27 42 1
27 45 1
27 71 3
27 76 1
28 10 1
28 15 0
28 28 1
28 33 0
28 51 4
28 57 4
28 63 0
28 66 3
28 82 1
28 83 2
29 6 3
29 21 1
29 47 2
29 59 1
29 67 3
29 71 3
29 83 2
29 95 4
29 97 1
29 99 1
30 3 1
30 7 0
30 13 3
30 15 2
30 19 1
30 45 4
30 47 0
30 50 4
30 52 4
30 69 3
31 6 3
31 9 4
31 18 4
31 21 2
31 24 2
31 27 2
31 35 3
31 41 3
31 42 1
31 50 1
32 18 3
32 26 1
32 32 2
32 33 2
32 52 4
32 59 4
32 62 3
32 64 4
32 74 0
32 82 1
33 2 4
33 5 3
33 11 0
33 21 2
33 22 0
33 30 4
33 31 4
33 52 3
33 58 1
33 77 2
34 18 1
34 26 4
34 27 2
34 31 2
34 36 3
34 39 4
34 80 1
34 82 2
34 86 3
34 90 0
35 4 4
35 13 3
35 20 1
35 34 1
35 42 2
35 65 1
35 73 0
35 84 4
35 91 3
35 94 0
36 23 2
36 39 4
36 44 1
36 45 3
36 53 2
36 60 0
36 65 2
36 72 1
36 76 1
36 91 1
37 26 4
37 37 4
37 50 1
37 51 2
37 55 3
37 66 0
37 70 0
37 93 0
37 96 0
37 97 3
38 4 1
38 20 3
38 25 2
38 40 4
38 50 0
38 54 0
38 85 1
38 87 1
38 92 1
38 94 3
39 16 2
39 17 1
39 20 0
39 21 3
39 35 0
39 44 4
39 46 2
39 49 0
39 52 4
39 66 1
40 4 1
40 11 3
40 19 2
40 56 1
40 58 0
40 73 4
40 77 2
40 80 2
40 81 3
40 93 0
41 0 2
41 23 0
41 32 2
41 40 0
41 44 3
41 45 3
41 49 3
41 61 0
41 67 0
41 77 1
42 27 0
42 43 2
42 66 0
42 69 3
42 74 2
42 84 0
42 87 4
42 90 1
42 93 0
42 96 2
43 2 3
43 6 3
43 14 4
43 22 1
43 24 1
43 33 4
43 57 1
43 80 1
43 83 4
43 88 4
44 11 3
44 16 4
44 33 3
44 41 0
44 43 3
44 53 1
44 63 1
44 65 0
44 68 1
44 72 1
45 6 3
45 15 1
45 25 1
45 30 2
45 31 0
45 43 2
45 47 0
45 48 0
45 57 0
45 63 1
46 7 1
46 20 0
46 41 1
46 53 3
46 58 4
46 60 3
46 61 0
46 62 4
46 65 2
46 75 0
47 6 2
47 10 2
47 13 1
47 20 4
47 25 2
47 27 2
47 41 4
47 46 1
47 48 1
47 57 3
48 3 2
48 7 4
48 9 0
48 38 1
48 40 1
48 41 0
48 46 4
48 60 0
48 68 0
48 69 1
49 5 4
49 10 3
49 13 4
49 14 1
49 16 0
49 27 0
49 40 0
49 74 4
49 75 2
49 77 4
50 2 2
50 10 2
50 45 4
50 54 4
50 61 4
50 62 3
50 67 0
50 87 2
50 94 1
50 95 0
51 4 2
51 25 2
51 26 1
51 48 4
51 56 2
51 64 1
51 65 4
51 86 4
51 94 1
51 97 1
52 0 0
52 3 0
52 4 3
52 8 1
52 11 0
52 15 0
52 48 2
52 57 3
52 60 2
52 62 3
53 1 1
53 5 0
53 15 1
53 31 3
53 35 0
53 39 2
53 44 0
53 72 2
53 74 4
53 79 4
54 1 3
54 10 0
54 36 0
54 59 3
54 62 0
54 63 4
54 70 3
54 92 0
54 95 2
54 98 0
55 2 0
55 26 2
55 28 2
55 34 2
55 69 1
55 80 2
55 81 2
55 87 1
55 90 3
55 91 3
56 18 2
56 28 4
56 56 4
56 66 4
56 70 1
56 71 0
56 82 4
56 84 2
56 89 0
56 91 2
57 0 0
57 1 3
57 10 0
57 41 4
57 49 0
57 50 3
57 62 2
57 75 3
57 85 3
57 87 2
58 7 3
58 14 1
58 18 3
58 24 4
58 26 1
58 33 3
58 35 2
58 41 4
58 55 0
58 68 0
59 6 1
59 23 3
59 35 4
59 38 2
59 43 3
59 45 3
59 55 3
59 64 4
59 65 3
59 78 1
60 8 4
60 12 1
60 31 3
60 32 3
60 38 2
60 39 4
60 52 4
60 84 1
60 86 4
60 90 2
61 8 3
61 31 2
61 49 4
61 62 0
61 70 4
61 71 4
61 82 3
61 85 4
61 86 4
61 92 0
62 12 3
62 14 1
62 19 4
62 24 1
62 34 2
62 42 1
62 46 0
62 52 1
62 63 2
62 76 1
63 6 4
63 15 1
63 21 0
63 35 0
63 38 3
63 40 4
63 45 3
63 47 3
63 74 0
63 81 4
64 2 2
64 27 2
64 37 3
64 47 2
64 54 3
64 75 0
64 76 0
64 78 4
64 79 0
64 83 0
65 17 0
65 23 4
65 39 0
65 45 1
65 55 1
65 56 2
65 59 1
65 62 2
65 64 4
65 75 0
66 2 3
66 13 1
66 17 3
66 32 1
66 37 2
66 48 3
66 51 0
66 54 0
66 58 3
66 67 3
67 24 4
67 28 4
67 33 2
67 37 3
67 42 0
67 64 4
67 68 0
67 73 0
67 76 2
67 77 2
68 11 2
68 24 3
68 45 2
68 50 3
68 57 3
68 58 3
68 61 3
68 62 1
68 63 1
68 73 2
69 2 0
69 12 2
69 26 3
69 36 1
69 65 2
69 70 1
69 81 0
69 87 3
69 98 3
69 99 0
70 4 3
70 8 0
70 9 2
70 30 2
70 56 3
70 74 4
70 78 3
70 87 2
70 88 4
70 92 3
71 9 1
71 14 3
71 24 0
71 40 0
71 53 0
71 61 2
71 79 2
71 82 0
71 89 0
71 91 0
72 7 2
72 13 2
72 19 4
72 26 4
72 32 0
72 49 3
72 61 2
72 67 1
72 72 1
72 75 3
73 5 0
73 17 4
73 25 3
73 36 1
73 69 2
73 73 1
73 78 3
73 81 0
73 89 3
73 92 2
74 1 4
74 17 2
74 18 1
74 41 4
74 44 0
74 60 3
74 74 1
74 75 3
74 76 3
74 84 4
75 3 3
75 11 0
75 12 4
75 16 4
75 18 1
75 24 1
75 29 3
75 30 0
75 46 3
75 47 4
76 0 3
76 22 2
76 32 1
76 34 2
76 37 1
76 48 3
76 54 1
76 79 4
76 83 0
76 97 0
77 10 2
77 21 3
77 23 4
77 52 3
77 55 3
77 71 1
77 76 0
77 77 3
77 80 3
77 81 1
78 2 3
78 4 0
78 7 4
78 12 2
78 13 1
78 15 3
78 20 0
78 29 2
78 30 3
78 33 3
79 0 0
79 8 0
79 20 3
79 22 4
79 35 1
79 43 0
79 45 3
79 55 1
79 77 3
79 80 0
80 0 1
80 5 0
80 11 2
80 28 4
80 34 1
80 37 4
80 44 0
80 50 2
80 60 4
80 70 1
81 16 4
81 28 3
81 30 0
81 37 4
81 63 1
81 64 0
81 66 3
81 79 0
81 86 2
81 88 1
82 17 3
82 22 1
82 34 4
82 43 3
82 67 0
82 68 0
82 71 3
82 73 4
82 79 2
82 95 1
83 8 0
83 12 1
83 36 0
83 47 0
83 52 4
83 58 1
83 59 1
83 69 3
83 79 4
83 82 1
84 3 3
84 10 2
84 11 2
84 14 1
84 53 3
84 71 2
84 74 2
84 84 1
84 85 4
84 92 1
85 9 3
85 12 4
85 15 1
85 21 0
85 24 2
85 38 3
85 46 0
85 67 1
85 78 3
85 79 2
86 20 2
86 32 2
86 54 4
86 73 2
86 80 2
86 85 3
86 88 3
86 90 3
86 96 2
86 99 1
87 8 2
87 29 4
87 33 3
87 49 4
87 57 2
87 58 4
87 59 1
87 66 2
87 72 2
87 81 0
88 4 0
88 5 3
88 14 1
88 32 1
88 47 1
88 59 3
88 84 0
88 97 2
88 98 3
88 99 2
89 52 1
89 68 4
89 76 2
89 90 4
89 92 0
89 95 1
89 96 2
89 97 0
89 98 2
89 99 4
90 8 4
90 14 3
90 16 0
90 19 0
90 53 4
90 56 3
90 67 1
90 69 1
90 86 1
90 89 4
91 31 1
91 36 0
91 39 4
91 50 0
91 75 4
91 81 2
91 82 2
91 84 1
91 88 0
91 93 4
92 1 0
92 13 3
92 26 4
92 27 0
92 42 2
92 51 2
92 62 1
92 68 2
92 72 3
92 77 4
93 4 3
93 17 1
93 20 4
93 22 3
93 27 0
93 29 0
93 36 2
93 43 0
93 57 1
93 71 1
94 0 1
94 1 1
94 3 4
94 16 4
94 25 3
94 28 2
94 46 0
94 54 3
94 67 2
94 88 4
95 6 4
95 7 2
95 13 2
95 18 1
95 19 1
95 48 1
95 55 0
95 60 0
95 85 2
95 88 0
96 9 2
96 35 1
96 39 3
96 46 2
96 50 0
96 72 3
96 75 3
96 97 4
96 98 0
96 99 1
97 7 1
97 28 2
97 42 4
97 49 0
97 54 4
97 55 1
97 64 4
97 70 2
97 83 2
97 92 2
98 3 0
98 15 4
98 51 0
98 59 0
98 69 3
98 70 3
98 85 0
98 90 4
98 92 2
98 93 2
99 5 2
99 23 0
99 29 4
99 32 0
99 38 3
99 40 4
99 54 3
99 55 4
99 87 2
99 90 1
